2
1000 3
48
256 1 1000000
257 1 1000000
258 1 2000000
260 1 1000000
406 1 1000000
262 1 1000000
264 1 2000000
266 1 1000000
267 1 1000000
268 1 1000000
269 1 1000000
270 1 1000000
403 1 1000000
278 1 2000000
279 1 2000000
281 1 1000000
411 1 1000000
285 1 2000000
290 1 1000000
292 1 1000000
294 1 2000000
425 1 1000000
428 1 1000000
302 1 1000000
306 1 1000000
436 1 1000000
309 1 1000000
394 1 1000000
437 1 1000000
453 1 1000000
455 1 1000000
459 1 2000000
333 1 1000000
467 1 1000000
469 1 1000000
342 1 1000000
478 1 1000000
355 1 1000000
422 1 1000000
489 1 1000000
492 1 1000000
495 1 1000000
496 1 1000000
250 1 2000000
251 1 3000000
253 1 1000000
254 1 1000000
255 1 3000000
